Version identifier: 22.1.0.0 | 2022-03-09 | 1a383f8ce
CPXPARAM_Read_DataCheck                          1
1 of 1 MIP starts provided solutions.
MIP start 'm1' defined initial solution with objective 55.0000.
Tried aggregator 4 times.
MIP Presolve eliminated 61856 rows and 6513 columns.
MIP Presolve modified 832 coefficients.
Aggregator did 56803 substitutions.
Reduced MIP has 7021 rows, 58124 columns, and 123402 nonzeros.
Reduced MIP has 58092 binaries, 32 generals, 0 SOSs, and 0 indicators.
Presolve time = 0.68 sec. (711.12 ticks)
Tried aggregator 1 time.
Detecting symmetries...
Reduced MIP has 7021 rows, 58124 columns, and 123402 nonzeros.
Reduced MIP has 58092 binaries, 32 generals, 0 SOSs, and 0 indicators.
Presolve time = 0.11 sec. (88.16 ticks)
Probing fixed 49 vars, tightened 0 bounds.
Probing changed sense of 7 constraints.
Probing time = 0.21 sec. (22.87 ticks)
Clique table members: 117816.
MIP emphasis: balance optimality and feasibility.
MIP search method: dynamic search.
Parallel mode: deterministic, using up to 8 threads.
Root relaxation solution time = 0.61 sec. (487.77 ticks)

        Nodes                                         Cuts/
   Node  Left     Objective  IInf  Best Integer    Best Bound    ItCnt     Gap

*     0+    0                           55.0000        0.0000           100.00%
      0     0       32.4191  5555       55.0000       32.4191     6384   41.06%
      0     0       54.0000   805       55.0000      Cuts: 35    19257    1.82%
      0     0       54.0000   627       55.0000      Cuts: 66    33364    1.82%

Repeating presolve.
Tried aggregator 3 times.
MIP Presolve eliminated 1370 rows and 28034 columns.
MIP Presolve modified 4 coefficients.
Aggregator did 1117 substitutions.
Reduced MIP has 4534 rows, 28973 columns, and 62103 nonzeros.
Reduced MIP has 28973 binaries, 0 generals, 0 SOSs, and 0 indicators.
Presolve time = 0.13 sec. (122.21 ticks)
Tried aggregator 2 times.
Detecting symmetries...
MIP Presolve eliminated 0 rows and 3 columns.
MIP Presolve modified 3 coefficients.
Aggregator did 6 substitutions.
Reduced MIP has 4528 rows, 28964 columns, and 62121 nonzeros.
Reduced MIP has 28964 binaries, 0 generals, 0 SOSs, and 0 indicators.
Presolve time = 0.06 sec. (53.10 ticks)
Represolve time = 0.25 sec. (231.68 ticks)
Probing fixed 41 vars, tightened 0 bounds.
Probing time = 0.12 sec. (45.31 ticks)
Clique table members: 50609.
MIP emphasis: balance optimality and feasibility.
MIP search method: dynamic search.
Parallel mode: deterministic, using up to 8 threads.
Root relaxation solution time = 1.94 sec. (2023.68 ticks)

        Nodes                                         Cuts/
   Node  Left     Objective  IInf  Best Integer    Best Bound    ItCnt     Gap

*     0+    0                           55.0000       54.0000             1.82%
      0     0       54.0000  2827       55.0000       54.0000    33378    1.82%
      0     0       54.0000   803       55.0000     Cuts: 432    50230    1.82%
      0     0       54.0000   449       55.0000       Cuts: 8    64344    1.82%
      0     0        cutoff             55.0000                  80426    0.00%
Elapsed time = 241.83 sec. (107099.43 ticks, tree = 0.01 MB, solutions = 1)

Clique cuts applied:  106
Implied bound cuts applied:  1
Zero-half cuts applied:  108
Lift and project cuts applied:  6
Gomory fractional cuts applied:  23

Root node processing (before b&c):
  Real time             =  241.83 sec. (107102.10 ticks)
Parallel b&c, 8 threads:
  Real time             =    0.00 sec. (0.00 ticks)
  Sync time (average)   =    0.00 sec.
  Wait time (average)   =    0.00 sec.
                          ------------
Total (root+branch&cut) =  241.83 sec. (107102.10 ticks)
